Traveling Salesman Problem/TSP_generados/Aleatorio1620392691_16.tsp
NAME: Aleatorio1620392691_16.tsp
COMMENT: Randomly generated scenario
TYPE: TSP
DIMENSION: 16
EDGE_WEIGHT_TYPE: ATT
NODE_COORD_SECTION
1 32.28 12.16
2 48.39 20.55
3 44.52 25.5
4 46.46 21.87
5 32.56 39.83
6 5.91 36.82
7 2.74 0.6
8 11.78 33.74
9 38.69 17.36
10 20.89 41.45
11 29.08 28.62
12 4.0 11.8
13 41.46 40.09
14 41.91 40.02
15 3.85 41.97
16 45.64 3.29
