Traveling Salesman Problem/TSP_generados/Aleatorio1620392691_16.opt.tour
NAME: Aleatorio1620392691_16.opt.tour
COMMENT: Optimal solution for Aleatorio1620392691_16 (194.4437783586976)
TYPE: TOUR
DIMENSION: 16
TOUR_SECTION
1 9 16 2 4 3 14 13 5 11 10 15 6 8 12 7
-1
EOF
